50 8
336 984
267 647
464 713
498 607
472 702
422 913
705 637
678 186
849 42
580 512
253 261
878 470
215 43
604 508
171 410
164 680
488 779
618 418
509 623
870 133
793 371
312 815
487 683
493 671
694 637
590 315
683 355
938 353
384 697
212 78
508 528
544 185
459 738
291 29
770 457
799 544
644 439
853 178
332 672
225 22
601 702
392 850
189 309
256 557
247 713
493 665
144 579
699 92
510 506
792 76
